40
    58    59    77    73    34    95    68     3    24    65    36    57    75    25    31     6    62    86    78    23    88    10    82    87    83    13    26    77     7    65    70    76    47    88    52    71    18    57    90    52
     8     2     9     8     2     2    10     3     7     8     7     8     2     8     8     7     6     6     9     2     5    10     5     6     4     7     7     4     6     7     9     2     3     8     9     7     5     4     6     5
  1934  1175  1115  1502  2129  1792  1230  1803  1832  2123  1134  1253  2297  1666  1659  2101  2335  1304  2360  2293  2138  1620  1730  1340  1179  1868  2003  1600  2038  2238  1471  2313  1730  1505  1920  2194  2097  1926  2265  1361
